p cnf 384 2834
1 2 3 0
-1 -2 0
-1 -3 0
-2 -3 0
4 5 6 0
-4 -5 0
-4 -6 0
-5 -6 0
7 8 9 0
-7 -8 0
-7 -9 0
-8 -9 0
10 11 12 0
-10 -11 0
-10 -12 0
-11 -12 0
13 14 15 0
-13 -14 0
-13 -15 0
-14 -15 0
16 17 18 0
-16 -17 0
-16 -18 0
-17 -18 0
19 20 21 0
-19 -20 0
-19 -21 0
-20 -21 0
22 23 24 0
-22 -23 0
-22 -24 0
-23 -24 0
25 26 27 0
-25 -26 0
-25 -27 0
-26 -27 0
28 29 30 0
-28 -29 0
-28 -30 0
-29 -30 0
31 32 33 0
-31 -32 0
-31 -33 0
-32 -33 0
34 35 36 0
-34 -35 0
-34 -36 0
-35 -36 0
37 38 39 0
-37 -38 0
-37 -39 0
-38 -39 0
40 41 42 0
-40 -41 0
-40 -42 0
-41 -42 0
43 44 45 0
-43 -44 0
-43 -45 0
-44 -45 0
46 47 48 0
-46 -47 0
-46 -48 0
-47 -48 0
49 50 51 0
-49 -50 0
-49 -51 0
-50 -51 0
52 53 54 0
-52 -53 0
-52 -54 0
-53 -54 0
55 56 57 0
-55 -56 0
-55 -57 0
-56 -57 0
58 59 60 0
-58 -59 0
-58 -60 0
-59 -60 0
61 62 63 0
-61 -62 0
-61 -63 0
-62 -63 0
64 65 66 0
-64 -65 0
-64 -66 0
-65 -66 0
67 68 69 0
-67 -68 0
-67 -69 0
-68 -69 0
70 71 72 0
-70 -71 0
-70 -72 0
-71 -72 0
73 74 75 0
-73 -74 0
-73 -75 0
-74 -75 0
76 77 78 0
-76 -77 0
-76 -78 0
-77 -78 0
79 80 81 0
-79 -80 0
-79 -81 0
-80 -81 0
82 83 84 0
-82 -83 0
-82 -84 0
-83 -84 0
85 86 87 0
-85 -86 0
-85 -87 0
-86 -87 0
88 89 90 0
-88 -89 0
-88 -90 0
-89 -90 0
91 92 93 0
-91 -92 0
-91 -93 0
-92 -93 0
94 95 96 0
-94 -95 0
-94 -96 0
-95 -96 0
97 98 99 0
-97 -98 0
-97 -99 0
-98 -99 0
100 101 102 0
-100 -101 0
-100 -102 0
-101 -102 0
103 104 105 0
-103 -104 0
-103 -105 0
-104 -105 0
106 107 108 0
-106 -107 0
-106 -108 0
-107 -108 0
109 110 111 0
-109 -110 0
-109 -111 0
-110 -111 0
112 113 114 0
-112 -113 0
-112 -114 0
-113 -114 0
115 116 117 0
-115 -116 0
-115 -117 0
-116 -117 0
118 119 120 0
-118 -119 0
-118 -120 0
-119 -120 0
121 122 123 0
-121 -122 0
-121 -123 0
-122 -123 0
124 125 126 0
-124 -125 0
-124 -126 0
-125 -126 0
127 128 129 0
-127 -128 0
-127 -129 0
-128 -129 0
130 131 132 0
-130 -131 0
-130 -132 0
-131 -132 0
133 134 135 0
-133 -134 0
-133 -135 0
-134 -135 0
136 137 138 0
-136 -137 0
-136 -138 0
-137 -138 0
139 140 141 0
-139 -140 0
-139 -141 0
-140 -141 0
142 143 144 0
-142 -143 0
-142 -144 0
-143 -144 0
145 146 147 0
-145 -146 0
-145 -147 0
-146 -147 0
148 149 150 0
-148 -149 0
-148 -150 0
-149 -150 0
151 152 153 0
-151 -152 0
-151 -153 0
-152 -153 0
154 155 156 0
-154 -155 0
-154 -156 0
-155 -156 0
157 158 159 0
-157 -158 0
-157 -159 0
-158 -159 0
160 161 162 0
-160 -161 0
-160 -162 0
-161 -162 0
163 164 165 0
-163 -164 0
-163 -165 0
-164 -165 0
166 167 168 0
-166 -167 0
-166 -168 0
-167 -168 0
169 170 171 0
-169 -170 0
-169 -171 0
-170 -171 0
172 173 174 0
-172 -173 0
-172 -174 0
-173 -174 0
175 176 177 0
-175 -176 0
-175 -177 0
-176 -177 0
178 179 180 0
-178 -179 0
-178 -180 0
-179 -180 0
181 182 183 0
-181 -182 0
-181 -183 0
-182 -183 0
184 185 186 0
-184 -185 0
-184 -186 0
-185 -186 0
187 188 189 0
-187 -188 0
-187 -189 0
-188 -189 0
190 191 192 0
-190 -191 0
-190 -192 0
-191 -192 0
193 194 195 0
-193 -194 0
-193 -195 0
-194 -195 0
196 197 198 0
-196 -197 0
-196 -198 0
-197 -198 0
199 200 201 0
-199 -200 0
-199 -201 0
-200 -201 0
202 203 204 0
-202 -203 0
-202 -204 0
-203 -204 0
205 206 207 0
-205 -206 0
-205 -207 0
-206 -207 0
208 209 210 0
-208 -209 0
-208 -210 0
-209 -210 0
211 212 213 0
-211 -212 0
-211 -213 0
-212 -213 0
214 215 216 0
-214 -215 0
-214 -216 0
-215 -216 0
217 218 219 0
-217 -218 0
-217 -219 0
-218 -219 0
220 221 222 0
-220 -221 0
-220 -222 0
-221 -222 0
223 224 225 0
-223 -224 0
-223 -225 0
-224 -225 0
226 227 228 0
-226 -227 0
-226 -228 0
-227 -228 0
229 230 231 0
-229 -230 0
-229 -231 0
-230 -231 0
232 233 234 0
-232 -233 0
-232 -234 0
-233 -234 0
235 236 237 0
-235 -236 0
-235 -237 0
-236 -237 0
238 239 240 0
-238 -239 0
-238 -240 0
-239 -240 0
241 242 243 0
-241 -242 0
-241 -243 0
-242 -243 0
244 245 246 0
-244 -245 0
-244 -246 0
-245 -246 0
247 248 249 0
-247 -248 0
-247 -249 0
-248 -249 0
250 251 252 0
-250 -251 0
-250 -252 0
-251 -252 0
253 254 255 0
-253 -254 0
-253 -255 0
-254 -255 0
256 257 258 0
-256 -257 0
-256 -258 0
-257 -258 0
259 260 261 0
-259 -260 0
-259 -261 0
-260 -261 0
262 263 264 0
-262 -263 0
-262 -264 0
-263 -264 0
265 266 267 0
-265 -266 0
-265 -267 0
-266 -267 0
268 269 270 0
-268 -269 0
-268 -270 0
-269 -270 0
271 272 273 0
-271 -272 0
-271 -273 0
-272 -273 0
274 275 276 0
-274 -275 0
-274 -276 0
-275 -276 0
277 278 279 0
-277 -278 0
-277 -279 0
-278 -279 0
280 281 282 0
-280 -281 0
-280 -282 0
-281 -282 0
283 284 285 0
-283 -284 0
-283 -285 0
-284 -285 0
286 287 288 0
-286 -287 0
-286 -288 0
-287 -288 0
289 290 291 0
-289 -290 0
-289 -291 0
-290 -291 0
292 293 294 0
-292 -293 0
-292 -294 0
-293 -294 0
295 296 297 0
-295 -296 0
-295 -297 0
-296 -297 0
298 299 300 0
-298 -299 0
-298 -300 0
-299 -300 0
301 302 303 0
-301 -302 0
-301 -303 0
-302 -303 0
304 305 306 0
-304 -305 0
-304 -306 0
-305 -306 0
307 308 309 0
-307 -308 0
-307 -309 0
-308 -309 0
310 311 312 0
-310 -311 0
-310 -312 0
-311 -312 0
313 314 315 0
-313 -314 0
-313 -315 0
-314 -315 0
316 317 318 0
-316 -317 0
-316 -318 0
-317 -318 0
319 320 321 0
-319 -320 0
-319 -321 0
-320 -321 0
322 323 324 0
-322 -323 0
-322 -324 0
-323 -324 0
325 326 327 0
-325 -326 0
-325 -327 0
-326 -327 0
328 329 330 0
-328 -329 0
-328 -330 0
-329 -330 0
331 332 333 0
-331 -332 0
-331 -333 0
-332 -333 0
334 335 336 0
-334 -335 0
-334 -336 0
-335 -336 0
337 338 339 0
-337 -338 0
-337 -339 0
-338 -339 0
340 341 342 0
-340 -341 0
-340 -342 0
-341 -342 0
343 344 345 0
-343 -344 0
-343 -345 0
-344 -345 0
346 347 348 0
-346 -347 0
-346 -348 0
-347 -348 0
349 350 351 0
-349 -350 0
-349 -351 0
-350 -351 0
352 353 354 0
-352 -353 0
-352 -354 0
-353 -354 0
355 356 357 0
-355 -356 0
-355 -357 0
-356 -357 0
358 359 360 0
-358 -359 0
-358 -360 0
-359 -360 0
361 362 363 0
-361 -362 0
-361 -363 0
-362 -363 0
364 365 366 0
-364 -365 0
-364 -366 0
-365 -366 0
367 368 369 0
-367 -368 0
-367 -369 0
-368 -369 0
370 371 372 0
-370 -371 0
-370 -372 0
-371 -372 0
373 374 375 0
-373 -374 0
-373 -375 0
-374 -375 0
376 377 378 0
-376 -377 0
-376 -378 0
-377 -378 0
379 380 381 0
-379 -380 0
-379 -381 0
-380 -381 0
382 383 384 0
-382 -383 0
-382 -384 0
-383 -384 0
-1 -325 0
-2 -326 0
-3 -327 0
-1 -292 0
-2 -293 0
-3 -294 0
-1 -238 0
-2 -239 0
-3 -240 0
-1 -163 0
-2 -164 0
-3 -165 0
-1 -91 0
-2 -92 0
-3 -93 0
-4 -379 0
-5 -380 0
-6 -381 0
-4 -367 0
-5 -368 0
-6 -369 0
-4 -337 0
-5 -338 0
-6 -339 0
-4 -331 0
-5 -332 0
-6 -333 0
-4 -277 0
-5 -278 0
-6 -279 0
-4 -223 0
-5 -224 0
-6 -225 0
-4 -133 0
-5 -134 0
-6 -135 0
-4 -28 0
-5 -29 0
-6 -30 0
-7 -13 0
-8 -14 0
-9 -15 0
-10 -370 0
-11 -371 0
-12 -372 0
-10 -310 0
-11 -311 0
-12 -312 0
-10 -118 0
-11 -119 0
-12 -120 0
-10 -76 0
-11 -77 0
-12 -78 0
-10 -61 0
-11 -62 0
-12 -63 0
-10 -52 0
-11 -53 0
-12 -54 0
-10 -25 0
-11 -26 0
-12 -27 0
-13 -259 0
-14 -260 0
-15 -261 0
-13 -142 0
-14 -143 0
-15 -144 0
-13 -7 0
-14 -8 0
-15 -9 0
-16 -265 0
-17 -266 0
-18 -267 0
-16 -211 0
-17 -212 0
-18 -213 0
-16 -178 0
-17 -179 0
-18 -180 0
-16 -67 0
-17 -68 0
-18 -69 0
-16 -37 0
-17 -38 0
-18 -39 0
-19 -295 0
-20 -296 0
-21 -297 0
-19 -271 0
-20 -272 0
-21 -273 0
-19 -40 0
-20 -41 0
-21 -42 0
-22 -382 0
-23 -383 0
-24 -384 0
-22 -298 0
-23 -299 0
-24 -300 0
-22 -271 0
-23 -272 0
-24 -273 0
-22 -262 0
-23 -263 0
-24 -264 0
-22 -217 0
-23 -218 0
-24 -219 0
-22 -184 0
-23 -185 0
-24 -186 0
-22 -127 0
-23 -128 0
-24 -129 0
-22 -55 0
-23 -56 0
-24 -57 0
-25 -370 0
-26 -371 0
-27 -372 0
-25 -310 0
-26 -311 0
-27 -312 0
-25 -61 0
-26 -62 0
-27 -63 0
-25 -52 0
-26 -53 0
-27 -54 0
-25 -10 0
-26 -11 0
-27 -12 0
-28 -346 0
-29 -347 0
-30 -348 0
-28 -337 0
-29 -338 0
-30 -339 0
-28 -331 0
-29 -332 0
-30 -333 0
-28 -277 0
-29 -278 0
-30 -279 0
-28 -223 0
-29 -224 0
-30 -225 0
-28 -157 0
-29 -158 0
-30 -159 0
-28 -133 0
-29 -134 0
-30 -135 0
-28 -121 0
-29 -122 0
-30 -123 0
-28 -112 0
-29 -113 0
-30 -114 0
-28 -88 0
-29 -89 0
-30 -90 0
-28 -70 0
-29 -71 0
-30 -72 0
-28 -58 0
-29 -59 0
-30 -60 0
-28 -4 0
-29 -5 0
-30 -6 0
-31 -253 0
-32 -254 0
-33 -255 0
-31 -175 0
-32 -176 0
-33 -177 0
-31 -148 0
-32 -149 0
-33 -150 0
-31 -124 0
-32 -125 0
-33 -126 0
-31 -49 0
-32 -50 0
-33 -51 0
-34 -109 0
-35 -110 0
-36 -111 0
-34 -94 0
-35 -95 0
-36 -96 0
-37 -286 0
-38 -287 0
-39 -288 0
-37 -265 0
-38 -266 0
-39 -267 0
-37 -211 0
-38 -212 0
-39 -213 0
-37 -178 0
-38 -179 0
-39 -180 0
-37 -16 0
-38 -17 0
-39 -18 0
-40 -19 0
-41 -20 0
-42 -21 0
-43 -229 0
-44 -230 0
-45 -231 0
-43 -160 0
-44 -161 0
-45 -162 0
-43 -118 0
-44 -119 0
-45 -120 0
-43 -85 0
-44 -86 0
-45 -87 0
-46 -97 0
-47 -98 0
-48 -99 0
-49 -253 0
-50 -254 0
-51 -255 0
-49 -148 0
-50 -149 0
-51 -150 0
-49 -31 0
-50 -32 0
-51 -33 0
-52 -370 0
-53 -371 0
-54 -372 0
-52 -310 0
-53 -311 0
-54 -312 0
-52 -118 0
-53 -119 0
-54 -120 0
-52 -76 0
-53 -77 0
-54 -78 0
-52 -61 0
-53 -62 0
-54 -63 0
-52 -25 0
-53 -26 0
-54 -27 0
-52 -10 0
-53 -11 0
-54 -12 0
-55 -301 0
-56 -302 0
-57 -303 0
-55 -298 0
-56 -299 0
-57 -300 0
-55 -232 0
-56 -233 0
-57 -234 0
-55 -217 0
-56 -218 0
-57 -219 0
-55 -127 0
-56 -128 0
-57 -129 0
-55 -115 0
-56 -116 0
-57 -117 0
-55 -22 0
-56 -23 0
-57 -24 0
-58 -376 0
-59 -377 0
-60 -378 0
-58 -346 0
-59 -347 0
-60 -348 0
-58 -343 0
-59 -344 0
-60 -345 0
-58 -337 0
-59 -338 0
-60 -339 0
-58 -280 0
-59 -281 0
-60 -282 0
-58 -244 0
-59 -245 0
-60 -246 0
-58 -205 0
-59 -206 0
-60 -207 0
-58 -172 0
-59 -173 0
-60 -174 0
-58 -157 0
-59 -158 0
-60 -159 0
-58 -136 0
-59 -137 0
-60 -138 0
-58 -133 0
-59 -134 0
-60 -135 0
-58 -112 0
-59 -113 0
-60 -114 0
-58 -88 0
-59 -89 0
-60 -90 0
-58 -73 0
-59 -74 0
-60 -75 0
-58 -70 0
-59 -71 0
-60 -72 0
-58 -28 0
-59 -29 0
-60 -30 0
-61 -370 0
-62 -371 0
-63 -372 0
-61 -310 0
-62 -311 0
-63 -312 0
-61 -145 0
-62 -146 0
-63 -147 0
-61 -118 0
-62 -119 0
-63 -120 0
-61 -76 0
-62 -77 0
-63 -78 0
-61 -52 0
-62 -53 0
-63 -54 0
-61 -25 0
-62 -26 0
-63 -27 0
-61 -10 0
-62 -11 0
-63 -12 0
-64 -352 0
-65 -353 0
-66 -354 0
-64 -256 0
-65 -257 0
-66 -258 0
-64 -244 0
-65 -245 0
-66 -246 0
-64 -181 0
-65 -182 0
-66 -183 0
-64 -106 0
-65 -107 0
-66 -108 0
-67 -265 0
-68 -266 0
-69 -267 0
-67 -211 0
-68 -212 0
-69 -213 0
-67 -178 0
-68 -179 0
-69 -180 0
-67 -166 0
-68 -167 0
-69 -168 0
-67 -16 0
-68 -17 0
-69 -18 0
-70 -346 0
-71 -347 0
-72 -348 0
-70 -337 0
-71 -338 0
-72 -339 0
-70 -277 0
-71 -278 0
-72 -279 0
-70 -181 0
-71 -182 0
-72 -183 0
-70 -157 0
-71 -158 0
-72 -159 0
-70 -121 0
-71 -122 0
-72 -123 0
-70 -112 0
-71 -113 0
-72 -114 0
-70 -88 0
-71 -89 0
-72 -90 0
-70 -58 0
-71 -59 0
-72 -60 0
-70 -28 0
-71 -29 0
-72 -30 0
-73 -352 0
-74 -353 0
-75 -354 0
-73 -346 0
-74 -347 0
-75 -348 0
-73 -280 0
-74 -281 0
-75 -282 0
-73 -256 0
-74 -257 0
-75 -258 0
-73 -244 0
-74 -245 0
-75 -246 0
-73 -181 0
-74 -182 0
-75 -183 0
-73 -172 0
-74 -173 0
-75 -174 0
-73 -157 0
-74 -158 0
-75 -159 0
-73 -136 0
-74 -137 0
-75 -138 0
-73 -112 0
-74 -113 0
-75 -114 0
-73 -106 0
-74 -107 0
-75 -108 0
-73 -88 0
-74 -89 0
-75 -90 0
-73 -58 0
-74 -59 0
-75 -60 0
-76 -370 0
-77 -371 0
-78 -372 0
-76 -310 0
-77 -311 0
-78 -312 0
-76 -118 0
-77 -119 0
-78 -120 0
-76 -61 0
-77 -62 0
-78 -63 0
-76 -52 0
-77 -53 0
-78 -54 0
-76 -10 0
-77 -11 0
-78 -12 0
-79 -382 0
-80 -383 0
-81 -384 0
-79 -328 0
-80 -329 0
-81 -330 0
-79 -322 0
-80 -323 0
-81 -324 0
-79 -262 0
-80 -263 0
-81 -264 0
-79 -226 0
-80 -227 0
-81 -228 0
-82 -376 0
-83 -377 0
-84 -378 0
-82 -367 0
-83 -368 0
-84 -369 0
-82 -343 0
-83 -344 0
-84 -345 0
-82 -295 0
-83 -296 0
-84 -297 0
-82 -274 0
-83 -275 0
-84 -276 0
-82 -271 0
-83 -272 0
-84 -273 0
-82 -202 0
-83 -203 0
-84 -204 0
-82 -196 0
-83 -197 0
-84 -198 0
-82 -184 0
-83 -185 0
-84 -186 0
-82 -154 0
-83 -155 0
-84 -156 0
-85 -229 0
-86 -230 0
-87 -231 0
-85 -160 0
-86 -161 0
-87 -162 0
-85 -43 0
-86 -44 0
-87 -45 0
-88 -346 0
-89 -347 0
-90 -348 0
-88 -337 0
-89 -338 0
-90 -339 0
-88 -277 0
-89 -278 0
-90 -279 0
-88 -244 0
-89 -245 0
-90 -246 0
-88 -181 0
-89 -182 0
-90 -183 0
-88 -172 0
-89 -173 0
-90 -174 0
-88 -157 0
-89 -158 0
-90 -159 0
-88 -121 0
-89 -122 0
-90 -123 0
-88 -112 0
-89 -113 0
-90 -114 0
-88 -73 0
-89 -74 0
-90 -75 0
-88 -70 0
-89 -71 0
-90 -72 0
-88 -58 0
-89 -59 0
-90 -60 0
-88 -28 0
-89 -29 0
-90 -30 0
-91 -358 0
-92 -359 0
-93 -360 0
-91 -307 0
-92 -308 0
-93 -309 0
-91 -292 0
-92 -293 0
-93 -294 0
-91 -130 0
-92 -131 0
-93 -132 0
-91 -1 0
-92 -2 0
-93 -3 0
-94 -109 0
-95 -110 0
-96 -111 0
-94 -34 0
-95 -35 0
-96 -36 0
-97 -46 0
-98 -47 0
-99 -48 0
-100 -361 0
-101 -362 0
-102 -363 0
-106 -352 0
-107 -353 0
-108 -354 0
-106 -256 0
-107 -257 0
-108 -258 0
-106 -244 0
-107 -245 0
-108 -246 0
-106 -181 0
-107 -182 0
-108 -183 0
-106 -112 0
-107 -113 0
-108 -114 0
-106 -73 0
-107 -74 0
-108 -75 0
-106 -64 0
-107 -65 0
-108 -66 0
-109 -139 0
-110 -140 0
-111 -141 0
-109 -94 0
-110 -95 0
-111 -96 0
-109 -34 0
-110 -35 0
-111 -36 0
-112 -346 0
-113 -347 0
-114 -348 0
-112 -337 0
-113 -338 0
-114 -339 0
-112 -256 0
-113 -257 0
-114 -258 0
-112 -244 0
-113 -245 0
-114 -246 0
-112 -181 0
-113 -182 0
-114 -183 0
-112 -157 0
-113 -158 0
-114 -159 0
-112 -121 0
-113 -122 0
-114 -123 0
-112 -106 0
-113 -107 0
-114 -108 0
-112 -88 0
-113 -89 0
-114 -90 0
-112 -73 0
-113 -74 0
-114 -75 0
-112 -70 0
-113 -71 0
-114 -72 0
-112 -58 0
-113 -59 0
-114 -60 0
-112 -28 0
-113 -29 0
-114 -30 0
-115 -373 0
-116 -374 0
-117 -375 0
-115 -340 0
-116 -341 0
-117 -342 0
-115 -313 0
-116 -314 0
-117 -315 0
-115 -298 0
-116 -299 0
-117 -300 0
-115 -232 0
-116 -233 0
-117 -234 0
-115 -217 0
-116 -218 0
-117 -219 0
-115 -55 0
-116 -56 0
-117 -57 0
-118 -370 0
-119 -371 0
-120 -372 0
-118 -76 0
-119 -77 0
-120 -78 0
-118 -61 0
-119 -62 0
-120 -63 0
-118 -52 0
-119 -53 0
-120 -54 0
-118 -43 0
-119 -44 0
-120 -45 0
-118 -10 0
-119 -11 0
-120 -12 0
-121 -346 0
-122 -347 0
-123 -348 0
-121 -157 0
-122 -158 0
-123 -159 0
-121 -112 0
-122 -113 0
-123 -114 0
-121 -88 0
-122 -89 0
-123 -90 0
-121 -70 0
-122 -71 0
-123 -72 0
-121 -28 0
-122 -29 0
-123 -30 0
-124 -253 0
-125 -254 0
-126 -255 0
-124 -241 0
-125 -242 0
-126 -243 0
-124 -187 0
-125 -188 0
-126 -189 0
-124 -175 0
-125 -176 0
-126 -177 0
-124 -148 0
-125 -149 0
-126 -150 0
-124 -31 0
-125 -32 0
-126 -33 0
-127 -382 0
-128 -383 0
-129 -384 0
-127 -340 0
-128 -341 0
-129 -342 0
-127 -298 0
-128 -299 0
-129 -300 0
-127 -271 0
-128 -272 0
-129 -273 0
-127 -217 0
-128 -218 0
-129 -219 0
-127 -184 0
-128 -185 0
-129 -186 0
-127 -55 0
-128 -56 0
-129 -57 0
-127 -22 0
-128 -23 0
-129 -24 0
-130 -358 0
-131 -359 0
-132 -360 0
-130 -355 0
-131 -356 0
-132 -357 0
-130 -307 0
-131 -308 0
-132 -309 0
-130 -292 0
-131 -293 0
-132 -294 0
-130 -214 0
-131 -215 0
-132 -216 0
-130 -169 0
-131 -170 0
-132 -171 0
-130 -91 0
-131 -92 0
-132 -93 0
-133 -376 0
-134 -377 0
-135 -378 0
-133 -367 0
-134 -368 0
-135 -369 0
-133 -343 0
-134 -344 0
-135 -345 0
-133 -337 0
-134 -338 0
-135 -339 0
-133 -274 0
-134 -275 0
-135 -276 0
-133 -205 0
-134 -206 0
-135 -207 0
-133 -196 0
-134 -197 0
-135 -198 0
-133 -154 0
-134 -155 0
-135 -156 0
-133 -58 0
-134 -59 0
-135 -60 0
-133 -28 0
-134 -29 0
-135 -30 0
-133 -4 0
-134 -5 0
-135 -6 0
-136 -352 0
-137 -353 0
-138 -354 0
-136 -280 0
-137 -281 0
-138 -282 0
-136 -247 0
-137 -248 0
-138 -249 0
-136 -244 0
-137 -245 0
-138 -246 0
-136 -172 0
-137 -173 0
-138 -174 0
-136 -157 0
-137 -158 0
-138 -159 0
-136 -73 0
-137 -74 0
-138 -75 0
-136 -58 0
-137 -59 0
-138 -60 0
-139 -109 0
-140 -110 0
-141 -111 0
-142 -13 0
-143 -14 0
-144 -15 0
-145 -310 0
-146 -311 0
-147 -312 0
-145 -61 0
-146 -62 0
-147 -63 0
-148 -253 0
-149 -254 0
-150 -255 0
-148 -241 0
-149 -242 0
-150 -243 0
-148 -187 0
-149 -188 0
-150 -189 0
-148 -124 0
-149 -125 0
-150 -126 0
-148 -49 0
-149 -50 0
-150 -51 0
-148 -31 0
-149 -32 0
-150 -33 0
-154 -376 0
-155 -377 0
-156 -378 0
-154 -367 0
-155 -368 0
-156 -369 0
-154 -343 0
-155 -344 0
-156 -345 0
-154 -295 0
-155 -296 0
-156 -297 0
-154 -274 0
-155 -275 0
-156 -276 0
-154 -271 0
-155 -272 0
-156 -273 0
-154 -205 0
-155 -206 0
-156 -207 0
-154 -202 0
-155 -203 0
-156 -204 0
-154 -196 0
-155 -197 0
-156 -198 0
-154 -184 0
-155 -185 0
-156 -186 0
-154 -133 0
-155 -134 0
-156 -135 0
-154 -82 0
-155 -83 0
-156 -84 0
-157 -346 0
-158 -347 0
-159 -348 0
-157 -337 0
-158 -338 0
-159 -339 0
-157 -280 0
-158 -281 0
-159 -282 0
-157 -256 0
-158 -257 0
-159 -258 0
-157 -244 0
-158 -245 0
-159 -246 0
-157 -205 0
-158 -206 0
-159 -207 0
-157 -181 0
-158 -182 0
-159 -183 0
-157 -172 0
-158 -173 0
-159 -174 0
-157 -136 0
-158 -137 0
-159 -138 0
-157 -121 0
-158 -122 0
-159 -123 0
-157 -112 0
-158 -113 0
-159 -114 0
-157 -88 0
-158 -89 0
-159 -90 0
-157 -73 0
-158 -74 0
-159 -75 0
-157 -70 0
-158 -71 0
-159 -72 0
-157 -58 0
-158 -59 0
-159 -60 0
-157 -28 0
-158 -29 0
-159 -30 0
-160 -229 0
-161 -230 0
-162 -231 0
-160 -85 0
-161 -86 0
-162 -87 0
-160 -43 0
-161 -44 0
-162 -45 0
-163 -307 0
-164 -308 0
-165 -309 0
-163 -292 0
-164 -293 0
-165 -294 0
-163 -199 0
-164 -200 0
-165 -201 0
-163 -169 0
-164 -170 0
-165 -171 0
-163 -1 0
-164 -2 0
-165 -3 0
-166 -316 0
-167 -317 0
-168 -318 0
-166 -283 0
-167 -284 0
-168 -285 0
-166 -265 0
-167 -266 0
-168 -267 0
-166 -178 0
-167 -179 0
-168 -180 0
-166 -67 0
-167 -68 0
-168 -69 0
-169 -307 0
-170 -308 0
-171 -309 0
-169 -292 0
-170 -293 0
-171 -294 0
-169 -199 0
-170 -200 0
-171 -201 0
-169 -163 0
-170 -164 0
-171 -165 0
-169 -130 0
-170 -131 0
-171 -132 0
-172 -352 0
-173 -353 0
-174 -354 0
-172 -346 0
-173 -347 0
-174 -348 0
-172 -280 0
-173 -281 0
-174 -282 0
-172 -256 0
-173 -257 0
-174 -258 0
-172 -247 0
-173 -248 0
-174 -249 0
-172 -244 0
-173 -245 0
-174 -246 0
-172 -205 0
-173 -206 0
-174 -207 0
-172 -181 0
-173 -182 0
-174 -183 0
-172 -157 0
-173 -158 0
-174 -159 0
-172 -136 0
-173 -137 0
-174 -138 0
-172 -88 0
-173 -89 0
-174 -90 0
-172 -73 0
-173 -74 0
-174 -75 0
-172 -58 0
-173 -59 0
-174 -60 0
-175 -253 0
-176 -254 0
-177 -255 0
-175 -124 0
-176 -125 0
-177 -126 0
-175 -31 0
-176 -32 0
-177 -33 0
-178 -316 0
-179 -317 0
-180 -318 0
-178 -283 0
-179 -284 0
-180 -285 0
-178 -265 0
-179 -266 0
-180 -267 0
-178 -211 0
-179 -212 0
-180 -213 0
-178 -166 0
-179 -167 0
-180 -168 0
-178 -67 0
-179 -68 0
-180 -69 0
-178 -37 0
-179 -38 0
-180 -39 0
-178 -16 0
-179 -17 0
-180 -18 0
-181 -352 0
-182 -353 0
-183 -354 0
-181 -346 0
-182 -347 0
-183 -348 0
-181 -256 0
-182 -257 0
-183 -258 0
-181 -244 0
-182 -245 0
-183 -246 0
-181 -172 0
-182 -173 0
-183 -174 0
-181 -157 0
-182 -158 0
-183 -159 0
-181 -112 0
-182 -113 0
-183 -114 0
-181 -106 0
-182 -107 0
-183 -108 0
-181 -88 0
-182 -89 0
-183 -90 0
-181 -73 0
-182 -74 0
-183 -75 0
-181 -70 0
-182 -71 0
-183 -72 0
-181 -64 0
-182 -65 0
-183 -66 0
-184 -295 0
-185 -296 0
-186 -297 0
-184 -274 0
-185 -275 0
-186 -276 0
-184 -271 0
-185 -272 0
-186 -273 0
-184 -262 0
-185 -263 0
-186 -264 0
-184 -226 0
-185 -227 0
-186 -228 0
-184 -202 0
-185 -203 0
-186 -204 0
-184 -154 0
-185 -155 0
-186 -156 0
-184 -127 0
-185 -128 0
-186 -129 0
-184 -82 0
-185 -83 0
-186 -84 0
-184 -22 0
-185 -23 0
-186 -24 0
-187 -241 0
-188 -242 0
-189 -243 0
-187 -148 0
-188 -149 0
-189 -150 0
-187 -124 0
-188 -125 0
-189 -126 0
-190 -364 0
-191 -365 0
-192 -366 0
-190 -208 0
-191 -209 0
-192 -210 0
-190 -199 0
-191 -200 0
-192 -201 0
-193 -373 0
-194 -374 0
-195 -375 0
-193 -289 0
-194 -290 0
-195 -291 0
-196 -376 0
-197 -377 0
-198 -378 0
-196 -367 0
-197 -368 0
-198 -369 0
-196 -343 0
-197 -344 0
-198 -345 0
-196 -274 0
-197 -275 0
-198 -276 0
-196 -205 0
-197 -206 0
-198 -207 0
-196 -202 0
-197 -203 0
-198 -204 0
-196 -154 0
-197 -155 0
-198 -156 0
-196 -133 0
-197 -134 0
-198 -135 0
-196 -82 0
-197 -83 0
-198 -84 0
-199 -364 0
-200 -365 0
-201 -366 0
-199 -190 0
-200 -191 0
-201 -192 0
-199 -169 0
-200 -170 0
-201 -171 0
-199 -163 0
-200 -164 0
-201 -165 0
-202 -367 0
-203 -368 0
-204 -369 0
-202 -274 0
-203 -275 0
-204 -276 0
-202 -271 0
-203 -272 0
-204 -273 0
-202 -262 0
-203 -263 0
-204 -264 0
-202 -226 0
-203 -227 0
-204 -228 0
-202 -196 0
-203 -197 0
-204 -198 0
-202 -184 0
-203 -185 0
-204 -186 0
-202 -154 0
-203 -155 0
-204 -156 0
-202 -82 0
-203 -83 0
-204 -84 0
-205 -376 0
-206 -377 0
-207 -378 0
-205 -367 0
-206 -368 0
-207 -369 0
-205 -343 0
-206 -344 0
-207 -345 0
-205 -280 0
-206 -281 0
-207 -282 0
-205 -247 0
-206 -248 0
-207 -249 0
-205 -196 0
-206 -197 0
-207 -198 0
-205 -172 0
-206 -173 0
-207 -174 0
-205 -157 0
-206 -158 0
-207 -159 0
-205 -154 0
-206 -155 0
-207 -156 0
-205 -133 0
-206 -134 0
-207 -135 0
-205 -58 0
-206 -59 0
-207 -60 0
-208 -364 0
-209 -365 0
-210 -366 0
-208 -190 0
-209 -191 0
-210 -192 0
-211 -286 0
-212 -287 0
-213 -288 0
-211 -265 0
-212 -266 0
-213 -267 0
-211 -178 0
-212 -179 0
-213 -180 0
-211 -67 0
-212 -68 0
-213 -69 0
-211 -37 0
-212 -38 0
-213 -39 0
-211 -16 0
-212 -17 0
-213 -18 0
-214 -358 0
-215 -359 0
-216 -360 0
-214 -355 0
-215 -356 0
-216 -357 0
-214 -130 0
-215 -131 0
-216 -132 0
-217 -301 0
-218 -302 0
-219 -303 0
-217 -298 0
-218 -299 0
-219 -300 0
-217 -232 0
-218 -233 0
-219 -234 0
-217 -127 0
-218 -128 0
-219 -129 0
-217 -115 0
-218 -116 0
-219 -117 0
-217 -55 0
-218 -56 0
-219 -57 0
-217 -22 0
-218 -23 0
-219 -24 0
-220 -349 0
-221 -350 0
-222 -351 0
-220 -340 0
-221 -341 0
-222 -342 0
-220 -313 0
-221 -314 0
-222 -315 0
-220 -289 0
-221 -290 0
-222 -291 0
-220 -235 0
-221 -236 0
-222 -237 0
-223 -379 0
-224 -380 0
-225 -381 0
-223 -337 0
-224 -338 0
-225 -339 0
-223 -331 0
-224 -332 0
-225 -333 0
-223 -319 0
-224 -320 0
-225 -321 0
-223 -277 0
-224 -278 0
-225 -279 0
-223 -28 0
-224 -29 0
-225 -30 0
-223 -4 0
-224 -5 0
-225 -6 0
-226 -382 0
-227 -383 0
-228 -384 0
-226 -274 0
-227 -275 0
-228 -276 0
-226 -262 0
-227 -263 0
-228 -264 0
-226 -202 0
-227 -203 0
-228 -204 0
-226 -184 0
-227 -185 0
-228 -186 0
-226 -79 0
-227 -80 0
-228 -81 0
-229 -160 0
-230 -161 0
-231 -162 0
-229 -85 0
-230 -86 0
-231 -87 0
-229 -43 0
-230 -44 0
-231 -45 0
-232 -373 0
-233 -374 0
-234 -375 0
-232 -340 0
-233 -341 0
-234 -342 0
-232 -313 0
-233 -314 0
-234 -315 0
-232 -301 0
-233 -302 0
-234 -303 0
-232 -298 0
-233 -299 0
-234 -300 0
-232 -289 0
-233 -290 0
-234 -291 0
-232 -217 0
-233 -218 0
-234 -219 0
-232 -115 0
-233 -116 0
-234 -117 0
-232 -55 0
-233 -56 0
-234 -57 0
-235 -328 0
-236 -329 0
-237 -330 0
-235 -322 0
-236 -323 0
-237 -324 0
-235 -304 0
-236 -305 0
-237 -306 0
-235 -268 0
-236 -269 0
-237 -270 0
-235 -220 0
-236 -221 0
-237 -222 0
-238 -325 0
-239 -326 0
-240 -327 0
-238 -304 0
-239 -305 0
-240 -306 0
-238 -268 0
-239 -269 0
-240 -270 0
-238 -1 0
-239 -2 0
-240 -3 0
-241 -187 0
-242 -188 0
-243 -189 0
-241 -148 0
-242 -149 0
-243 -150 0
-241 -124 0
-242 -125 0
-243 -126 0
-244 -352 0
-245 -353 0
-246 -354 0
-244 -346 0
-245 -347 0
-246 -348 0
-244 -280 0
-245 -281 0
-246 -282 0
-244 -256 0
-245 -257 0
-246 -258 0
-244 -181 0
-245 -182 0
-246 -183 0
-244 -172 0
-245 -173 0
-246 -174 0
-244 -157 0
-245 -158 0
-246 -159 0
-244 -136 0
-245 -137 0
-246 -138 0
-244 -112 0
-245 -113 0
-246 -114 0
-244 -106 0
-245 -107 0
-246 -108 0
-244 -88 0
-245 -89 0
-246 -90 0
-244 -73 0
-245 -74 0
-246 -75 0
-244 -64 0
-245 -65 0
-246 -66 0
-244 -58 0
-245 -59 0
-246 -60 0
-247 -280 0
-248 -281 0
-249 -282 0
-247 -205 0
-248 -206 0
-249 -207 0
-247 -172 0
-248 -173 0
-249 -174 0
-247 -136 0
-248 -137 0
-249 -138 0
-250 -379 0
-251 -380 0
-252 -381 0
-250 -331 0
-251 -332 0
-252 -333 0
-250 -286 0
-251 -287 0
-252 -288 0
-250 -277 0
-251 -278 0
-252 -279 0
-253 -175 0
-254 -176 0
-255 -177 0
-253 -148 0
-254 -149 0
-255 -150 0
-253 -124 0
-254 -125 0
-255 -126 0
-253 -49 0
-254 -50 0
-255 -51 0
-253 -31 0
-254 -32 0
-255 -33 0
-256 -352 0
-257 -353 0
-258 -354 0
-256 -346 0
-257 -347 0
-258 -348 0
-256 -244 0
-257 -245 0
-258 -246 0
-256 -181 0
-257 -182 0
-258 -183 0
-256 -172 0
-257 -173 0
-258 -174 0
-256 -157 0
-257 -158 0
-258 -159 0
-256 -112 0
-257 -113 0
-258 -114 0
-256 -106 0
-257 -107 0
-258 -108 0
-256 -73 0
-257 -74 0
-258 -75 0
-256 -64 0
-257 -65 0
-258 -66 0
-259 -13 0
-260 -14 0
-261 -15 0
-262 -382 0
-263 -383 0
-264 -384 0
-262 -274 0
-263 -275 0
-264 -276 0
-262 -271 0
-263 -272 0
-264 -273 0
-262 -226 0
-263 -227 0
-264 -228 0
-262 -202 0
-263 -203 0
-264 -204 0
-262 -184 0
-263 -185 0
-264 -186 0
-262 -79 0
-263 -80 0
-264 -81 0
-262 -22 0
-263 -23 0
-264 -24 0
-265 -211 0
-266 -212 0
-267 -213 0
-265 -178 0
-266 -179 0
-267 -180 0
-265 -166 0
-266 -167 0
-267 -168 0
-265 -67 0
-266 -68 0
-267 -69 0
-265 -37 0
-266 -38 0
-267 -39 0
-265 -16 0
-266 -17 0
-267 -18 0
-268 -328 0
-269 -329 0
-270 -330 0
-268 -325 0
-269 -326 0
-270 -327 0
-268 -322 0
-269 -323 0
-270 -324 0
-268 -304 0
-269 -305 0
-270 -306 0
-268 -238 0
-269 -239 0
-270 -240 0
-268 -235 0
-269 -236 0
-270 -237 0
-271 -295 0
-272 -296 0
-273 -297 0
-271 -274 0
-272 -275 0
-273 -276 0
-271 -262 0
-272 -263 0
-273 -264 0
-271 -202 0
-272 -203 0
-273 -204 0
-271 -184 0
-272 -185 0
-273 -186 0
-271 -154 0
-272 -155 0
-273 -156 0
-271 -127 0
-272 -128 0
-273 -129 0
-271 -82 0
-272 -83 0
-273 -84 0
-271 -22 0
-272 -23 0
-273 -24 0
-271 -19 0
-272 -20 0
-273 -21 0
-274 -376 0
-275 -377 0
-276 -378 0
-274 -367 0
-275 -368 0
-276 -369 0
-274 -343 0
-275 -344 0
-276 -345 0
-274 -319 0
-275 -320 0
-276 -321 0
-274 -271 0
-275 -272 0
-276 -273 0
-274 -262 0
-275 -263 0
-276 -264 0
-274 -226 0
-275 -227 0
-276 -228 0
-274 -202 0
-275 -203 0
-276 -204 0
-274 -196 0
-275 -197 0
-276 -198 0
-274 -184 0
-275 -185 0
-276 -186 0
-274 -154 0
-275 -155 0
-276 -156 0
-274 -133 0
-275 -134 0
-276 -135 0
-274 -82 0
-275 -83 0
-276 -84 0
-277 -379 0
-278 -380 0
-279 -381 0
-277 -337 0
-278 -338 0
-279 -339 0
-277 -331 0
-278 -332 0
-279 -333 0
-277 -250 0
-278 -251 0
-279 -252 0
-277 -223 0
-278 -224 0
-279 -225 0
-277 -88 0
-278 -89 0
-279 -90 0
-277 -70 0
-278 -71 0
-279 -72 0
-277 -28 0
-278 -29 0
-279 -30 0
-277 -4 0
-278 -5 0
-279 -6 0
-280 -346 0
-281 -347 0
-282 -348 0
-280 -247 0
-281 -248 0
-282 -249 0
-280 -244 0
-281 -245 0
-282 -246 0
-280 -205 0
-281 -206 0
-282 -207 0
-280 -172 0
-281 -173 0
-282 -174 0
-280 -157 0
-281 -158 0
-282 -159 0
-280 -136 0
-281 -137 0
-282 -138 0
-280 -73 0
-281 -74 0
-282 -75 0
-280 -58 0
-281 -59 0
-282 -60 0
-283 -316 0
-284 -317 0
-285 -318 0
-283 -178 0
-284 -179 0
-285 -180 0
-283 -166 0
-284 -167 0
-285 -168 0
-286 -379 0
-287 -380 0
-288 -381 0
-286 -331 0
-287 -332 0
-288 -333 0
-286 -250 0
-287 -251 0
-288 -252 0
-286 -211 0
-287 -212 0
-288 -213 0
-286 -37 0
-287 -38 0
-288 -39 0
-289 -373 0
-290 -374 0
-291 -375 0
-289 -349 0
-290 -350 0
-291 -351 0
-289 -313 0
-290 -314 0
-291 -315 0
-289 -232 0
-290 -233 0
-291 -234 0
-289 -220 0
-290 -221 0
-291 -222 0
-289 -193 0
-290 -194 0
-291 -195 0
-292 -325 0
-293 -326 0
-294 -327 0
-292 -307 0
-293 -308 0
-294 -309 0
-292 -169 0
-293 -170 0
-294 -171 0
-292 -163 0
-293 -164 0
-294 -165 0
-292 -130 0
-293 -131 0
-294 -132 0
-292 -91 0
-293 -92 0
-294 -93 0
-292 -1 0
-293 -2 0
-294 -3 0
-295 -271 0
-296 -272 0
-297 -273 0
-295 -184 0
-296 -185 0
-297 -186 0
-295 -154 0
-296 -155 0
-297 -156 0
-295 -82 0
-296 -83 0
-297 -84 0
-295 -19 0
-296 -20 0
-297 -21 0
-298 -340 0
-299 -341 0
-300 -342 0
-298 -301 0
-299 -302 0
-300 -303 0
-298 -232 0
-299 -233 0
-300 -234 0
-298 -217 0
-299 -218 0
-300 -219 0
-298 -127 0
-299 -128 0
-300 -129 0
-298 -115 0
-299 -116 0
-300 -117 0
-298 -55 0
-299 -56 0
-300 -57 0
-298 -22 0
-299 -23 0
-300 -24 0
-301 -298 0
-302 -299 0
-303 -300 0
-301 -232 0
-302 -233 0
-303 -234 0
-301 -217 0
-302 -218 0
-303 -219 0
-301 -55 0
-302 -56 0
-303 -57 0
-304 -268 0
-305 -269 0
-306 -270 0
-304 -238 0
-305 -239 0
-306 -240 0
-304 -235 0
-305 -236 0
-306 -237 0
-307 -292 0
-308 -293 0
-309 -294 0
-307 -169 0
-308 -170 0
-309 -171 0
-307 -163 0
-308 -164 0
-309 -165 0
-307 -130 0
-308 -131 0
-309 -132 0
-307 -91 0
-308 -92 0
-309 -93 0
-310 -370 0
-311 -371 0
-312 -372 0
-310 -145 0
-311 -146 0
-312 -147 0
-310 -76 0
-311 -77 0
-312 -78 0
-310 -61 0
-311 -62 0
-312 -63 0
-310 -52 0
-311 -53 0
-312 -54 0
-310 -25 0
-311 -26 0
-312 -27 0
-310 -10 0
-311 -11 0
-312 -12 0
-313 -373 0
-314 -374 0
-315 -375 0
-313 -349 0
-314 -350 0
-315 -351 0
-313 -289 0
-314 -290 0
-315 -291 0
-313 -232 0
-314 -233 0
-315 -234 0
-313 -220 0
-314 -221 0
-315 -222 0
-313 -115 0
-314 -116 0
-315 -117 0
-316 -283 0
-317 -284 0
-318 -285 0
-316 -178 0
-317 -179 0
-318 -180 0
-316 -166 0
-317 -167 0
-318 -168 0
-319 -379 0
-320 -380 0
-321 -381 0
-319 -274 0
-320 -275 0
-321 -276 0
-319 -223 0
-320 -224 0
-321 -225 0
-322 -328 0
-323 -329 0
-324 -330 0
-322 -325 0
-323 -326 0
-324 -327 0
-322 -268 0
-323 -269 0
-324 -270 0
-322 -235 0
-323 -236 0
-324 -237 0
-322 -79 0
-323 -80 0
-324 -81 0
-325 -322 0
-326 -323 0
-327 -324 0
-325 -292 0
-326 -293 0
-327 -294 0
-325 -268 0
-326 -269 0
-327 -270 0
-325 -238 0
-326 -239 0
-327 -240 0
-325 -1 0
-326 -2 0
-327 -3 0
-328 -322 0
-329 -323 0
-330 -324 0
-328 -268 0
-329 -269 0
-330 -270 0
-328 -235 0
-329 -236 0
-330 -237 0
-328 -79 0
-329 -80 0
-330 -81 0
-331 -379 0
-332 -380 0
-333 -381 0
-331 -286 0
-332 -287 0
-333 -288 0
-331 -277 0
-332 -278 0
-333 -279 0
-331 -250 0
-332 -251 0
-333 -252 0
-331 -223 0
-332 -224 0
-333 -225 0
-331 -28 0
-332 -29 0
-333 -30 0
-331 -4 0
-332 -5 0
-333 -6 0
-337 -376 0
-338 -377 0
-339 -378 0
-337 -367 0
-338 -368 0
-339 -369 0
-337 -346 0
-338 -347 0
-339 -348 0
-337 -343 0
-338 -344 0
-339 -345 0
-337 -277 0
-338 -278 0
-339 -279 0
-337 -223 0
-338 -224 0
-339 -225 0
-337 -157 0
-338 -158 0
-339 -159 0
-337 -133 0
-338 -134 0
-339 -135 0
-337 -112 0
-338 -113 0
-339 -114 0
-337 -88 0
-338 -89 0
-339 -90 0
-337 -70 0
-338 -71 0
-339 -72 0
-337 -58 0
-338 -59 0
-339 -60 0
-337 -28 0
-338 -29 0
-339 -30 0
-337 -4 0
-338 -5 0
-339 -6 0
-340 -298 0
-341 -299 0
-342 -300 0
-340 -232 0
-341 -233 0
-342 -234 0
-340 -220 0
-341 -221 0
-342 -222 0
-340 -127 0
-341 -128 0
-342 -129 0
-340 -115 0
-341 -116 0
-342 -117 0
-343 -376 0
-344 -377 0
-345 -378 0
-343 -367 0
-344 -368 0
-345 -369 0
-343 -337 0
-344 -338 0
-345 -339 0
-343 -274 0
-344 -275 0
-345 -276 0
-343 -205 0
-344 -206 0
-345 -207 0
-343 -196 0
-344 -197 0
-345 -198 0
-343 -154 0
-344 -155 0
-345 -156 0
-343 -133 0
-344 -134 0
-345 -135 0
-343 -82 0
-344 -83 0
-345 -84 0
-343 -58 0
-344 -59 0
-345 -60 0
-346 -337 0
-347 -338 0
-348 -339 0
-346 -280 0
-347 -281 0
-348 -282 0
-346 -256 0
-347 -257 0
-348 -258 0
-346 -244 0
-347 -245 0
-348 -246 0
-346 -181 0
-347 -182 0
-348 -183 0
-346 -172 0
-347 -173 0
-348 -174 0
-346 -157 0
-347 -158 0
-348 -159 0
-346 -121 0
-347 -122 0
-348 -123 0
-346 -112 0
-347 -113 0
-348 -114 0
-346 -88 0
-347 -89 0
-348 -90 0
-346 -73 0
-347 -74 0
-348 -75 0
-346 -70 0
-347 -71 0
-348 -72 0
-346 -58 0
-347 -59 0
-348 -60 0
-346 -28 0
-347 -29 0
-348 -30 0
-349 -313 0
-350 -314 0
-351 -315 0
-349 -289 0
-350 -290 0
-351 -291 0
-349 -220 0
-350 -221 0
-351 -222 0
-352 -256 0
-353 -257 0
-354 -258 0
-352 -244 0
-353 -245 0
-354 -246 0
-352 -181 0
-353 -182 0
-354 -183 0
-352 -172 0
-353 -173 0
-354 -174 0
-352 -136 0
-353 -137 0
-354 -138 0
-352 -106 0
-353 -107 0
-354 -108 0
-352 -73 0
-353 -74 0
-354 -75 0
-352 -64 0
-353 -65 0
-354 -66 0
-355 -214 0
-356 -215 0
-357 -216 0
-355 -130 0
-356 -131 0
-357 -132 0
-358 -214 0
-359 -215 0
-360 -216 0
-358 -130 0
-359 -131 0
-360 -132 0
-358 -91 0
-359 -92 0
-360 -93 0
-361 -100 0
-362 -101 0
-363 -102 0
-364 -208 0
-365 -209 0
-366 -210 0
-364 -199 0
-365 -200 0
-366 -201 0
-364 -190 0
-365 -191 0
-366 -192 0
-367 -376 0
-368 -377 0
-369 -378 0
-367 -343 0
-368 -344 0
-369 -345 0
-367 -337 0
-368 -338 0
-369 -339 0
-367 -274 0
-368 -275 0
-369 -276 0
-367 -205 0
-368 -206 0
-369 -207 0
-367 -202 0
-368 -203 0
-369 -204 0
-367 -196 0
-368 -197 0
-369 -198 0
-367 -154 0
-368 -155 0
-369 -156 0
-367 -133 0
-368 -134 0
-369 -135 0
-367 -82 0
-368 -83 0
-369 -84 0
-367 -4 0
-368 -5 0
-369 -6 0
-370 -310 0
-371 -311 0
-372 -312 0
-370 -118 0
-371 -119 0
-372 -120 0
-370 -76 0
-371 -77 0
-372 -78 0
-370 -61 0
-371 -62 0
-372 -63 0
-370 -52 0
-371 -53 0
-372 -54 0
-370 -25 0
-371 -26 0
-372 -27 0
-370 -10 0
-371 -11 0
-372 -12 0
-373 -313 0
-374 -314 0
-375 -315 0
-373 -289 0
-374 -290 0
-375 -291 0
-373 -232 0
-374 -233 0
-375 -234 0
-373 -193 0
-374 -194 0
-375 -195 0
-373 -115 0
-374 -116 0
-375 -117 0
-376 -367 0
-377 -368 0
-378 -369 0
-376 -343 0
-377 -344 0
-378 -345 0
-376 -337 0
-377 -338 0
-378 -339 0
-376 -274 0
-377 -275 0
-378 -276 0
-376 -205 0
-377 -206 0
-378 -207 0
-376 -196 0
-377 -197 0
-378 -198 0
-376 -154 0
-377 -155 0
-378 -156 0
-376 -133 0
-377 -134 0
-378 -135 0
-376 -82 0
-377 -83 0
-378 -84 0
-376 -58 0
-377 -59 0
-378 -60 0
-379 -331 0
-380 -332 0
-381 -333 0
-379 -319 0
-380 -320 0
-381 -321 0
-379 -286 0
-380 -287 0
-381 -288 0
-379 -277 0
-380 -278 0
-381 -279 0
-379 -250 0
-380 -251 0
-381 -252 0
-379 -223 0
-380 -224 0
-381 -225 0
-379 -4 0
-380 -5 0
-381 -6 0
-382 -262 0
-383 -263 0
-384 -264 0
-382 -226 0
-383 -227 0
-384 -228 0
-382 -127 0
-383 -128 0
-384 -129 0
-382 -79 0
-383 -80 0
-384 -81 0
-382 -22 0
-383 -23 0
-384 -24 0